8
2147483647 15 49 85 83 78 27 43 
15 2147483647 57 10 93 21 59 35 
49 57 2147483647 1 96 43 81 93 
85 10 1 2147483647 55 44 77 60 
83 93 96 55 2147483647 23 1 64 
78 21 43 44 23 2147483647 35 1 
27 59 81 77 1 35 2147483647 43 
43 35 93 60 64 1 43 2147483647 
